V_100_4.txt

VEHICLE     CAPACITY  LOCATIONS  CUSTOMER  OPTIONS  PRIORITIES  NUMTYPS
10		150		97		100		152		3		4

CUSTOMER  DEMAND
0	 18
1	 20
2	 18
3	 18
4	 18
5	 10
6	 13
7	 14
8	 17
9	 15
10	 16
11	 17
12	 11
13	 19
14	 10
15	 11
16	 17
17	 18
18	 16
19	 16
20	 12
21	 17
22	 13
23	 20
24	 17
25	 15
26	 10
27	 17
28	 10
29	 15
30	 13
31	 16
32	 17
33	 18
34	 11
35	 13
36	 12
37	 11
38	 11
39	 17
40	 18
41	 13
42	 11
43	 13
44	 11
45	 14
46	 16
47	 17
48	 16
49	 19
50	 15
51	 17
52	 17
53	 20
54	 15
55	 11
56	 13
57	 20
58	 16
59	 15
60	 18
61	 12
62	 13
63	 20
64	 18
65	 13
66	 15
67	 18
68	 17
69	 16
70	 15
71	 10
72	 11
73	 17
74	 10
75	 15
76	 20
77	 13
78	 14
79	 15
80	 12
81	 10
82	 10
83	 16
84	 17
85	 11
86	 13
87	 17
88	 10
89	 19
90	 18
91	 15
92	 14
93	 15
94	 12
95	 18
96	 11
97	 14
98	 13
99	 16

LOCATION  XCOORD  YCOORD  CAP  READY  DUE  TYP  SERVICETIME
0		14		21		-1		0		720	 0		0
1		13		4		-1		437		497		 2		6
2		24		33		-1		68		128		 2		6
3		15		18		-1		546		606		 2		6
4		30		47		-1		520		580		 2		6
5		35		17		-1		534		594		 2		6
6		37		34		-1		51		111		 2		6
7		8		3		-1		351		411		 2		6
8		5		11		-1		145		205		 2		6
9		40		4		-1		74		134		 2		6
10		30		45		-1		610		670		 2		6
11		4		3		-1		462		522		 2		6
12		32		7		-1		212		272		 2		6
13		46		19		-1		251		311		 2		6
14		30		2		-1		33		93		 2		6
15		36		38		-1		630		690		 2		6
16		16		17		-1		81		141		 2		6
17		48		4		-1		262		322		 2		6
18		36		38		-1		337		397		 2		6
19		11		11		-1		278		338		 2		6
20		2		18		-1		256		316		 2		6
21		8		46		-1		32		92		 2		6
22		12		28		-1		611		671		 2		6
23		4		48		-1		273		333		 2		6
24		25		21		-1		407		467		 2		6
25		5		4		-1		458		518		 2		6
26		40		18		-1		490		550		 2		6
27		49		29		-1		454		514		 2		6
28		3		13		-1		359		419		 2		6
29		39		9		-1		56		116		 2		6
30		24		4		-1		162		222		 2		6
31		12		49		-1		655		715		 2		6
32		44		10		-1		304		364		 2		6
33		46		33		-1		70		130		 2		6
34		8		49		-1		406		466		 2		6
35		6		19		-1		285		345		 2		6
36		17		24		-1		169		229		 2		6
37		36		3		-1		134		194		 2		6
38		47		48		-1		114		174		 2		6
39		7		9		-1		608		668		 2		6
40		8		2		-1		101		161		 2		6
41		1		21		-1		587		647		 2		6
42		12		27		-1		543		603		 2		6
43		25		36		-1		446		506		 2		6
44		18		17		-1		106		166		 2		6
45		1		47		-1		286		346		 2		6
46		37		5		-1		97		157		 2		6
47		20		31		-1		183		243		 2		6
48		46		22		-1		635		695		 2		6
49		11		41		-1		85		145		 2		6
50		38		18		-1		265		325		 2		6
51		48		11		-1		653		713		 2		6
52		36		42		-1		563		623		 2		6
53		29		10		-1		640		700		 2		6
54		34		12		-1		260		320		 2		6
55		42		6		-1		539		599		 2		6
56		14		26		-1		654		714		 2		6
57		47		17		-1		83		143		 2		6
58		8		40		-1		449		509		 2		6
59		9		40		-1		298		358		 2		6
60		9		21		-1		455		515		 2		6
61		12		15		-1		498		558		 2		6
62		50		7		-1		634		694		 2		6
63		15		46		-1		101		161		 2		6
64		8		12		-1		97		157		 2		6
65		10		4		-1		356		416		 2		6
66		5		6		-1		509		569		 2		6
67		40		21		-1		273		333		 2		6
68		46		18		-1		451		511		 2		6
69		7		33		-1		324		384		 2		6
70		50		29		-1		580		640		 2		6
71		28		34		-1		77		137		 2		6
72		42		22		-1		105		165		 2		6
73		10		39		-1		403		463		 2		6
74		36		9		-1		501		561		 2		6
75		10		26		-1		620		680		 2		6
76		9		40		-1		112		172		 2		6
77		26		26		4		157		397		 1		4
78		29		26		4		57		297		 1		4
79		14		42		3		269		509		 1		4
80		36		26		4		152		392		 1		4
81		45		24		5		437		677		 1		4
82		10		19		5		139		379		 1		4
83		14		16		5		41		281		 1		4
84		17		38		4		264		504		 1		4
85		22		27		4		208		448		 1		4
86		9		6		5		170		410		 1		4
87		39		43		4		101		341		 1		4
88		30		15		3		207		447		 1		4
89		26		42		5		204		444		 1		4
90		40		44		5		279		519		 1		4
91		9		36		3		480		720		 1		4
92		22		8		4		100		340		 1		4
93		7		30		3		385		625		 1		4
94		41		7		5		463		703		 1		4
95		44		45		3		116		356		 1		4
96		24		18		3		187		427		 1		4
OPTION  LOCATION  CUSTOMER  PRIO  SERVICETIME   COST
0		80		0		0		2		0
1		83		1		0		2		0
2		96		2		0		2		0
3		82		3		0		2		0
4		84		4		0		2		0
5		86		5		0		2		0
6		84		6		0		2		0
7		94		7		0		2		0
8		86		8		0		2		0
9		93		9		0		2		0
10		92		10		0		2		0
11		93		11		0		2		0
12		79		12		0		2		0
13		82		13		0		2		0
14		91		14		0		2		0
15		78		15		0		2		0
16		96		16		0		2		0
17		81		17		0		2		0
18		82		18		0		2		0
19		86		19		0		2		0
20		92		20		0		2		0
21		79		21		0		2		0
22		93		22		0		2		0
23		81		23		0		2		0
24		1		24		0		5		0
25		2		25		0		5		0
26		3		26		0		5		0
27		4		27		0		5		0
28		5		28		0		5		0
29		6		29		0		5		0
30		7		30		0		5		0
31		8		31		0		5		0
32		9		32		0		5		0
33		10		33		0		5		0
34		11		34		0		5		0
35		12		35		0		5		0
36		13		36		0		5		0
37		14		37		0		5		0
38		15		38		0		5		0
39		16		39		0		5		0
40		17		40		0		5		0
41		18		41		0		5		0
42		19		42		0		5		0
43		20		43		0		5		0
44		21		44		0		5		0
45		22		45		0		5		0
46		23		46		0		5		0
47		24		47		0		5		0
48		25		48		0		5		0
49		83		48		1		2		0
50		26		49		1		5		0
51		80		49		0		2		0
52		27		50		0		5		0
53		80		50		1		2		0
54		28		51		1		5		0
55		92		51		0		2		0
56		29		52		1		5		0
57		92		52		0		2		0
58		30		53		1		5		0
59		94		53		0		2		0
60		31		54		0		5		0
61		79		54		1		2		0
62		32		55		1		5		0
63		88		55		0		2		0
64		33		56		1		5		0
65		92		56		0		2		0
66		34		57		0		5		0
67		85		57		1		2		0
68		35		58		1		5		0
69		80		58		0		2		0
70		36		59		0		5		0
71		96		59		1		2		0
72		37		60		0		5		0
73		88		60		1		2		0
74		38		61		1		5		0
75		87		61		0		2		0
76		39		62		1		5		0
77		82		62		0		2		0
78		40		63		0		5		0
79		83		63		1		2		0
80		41		64		1		5		0
81		93		64		0		2		0
82		42		65		1		5		0
83		83		65		0		2		0
84		43		66		0		5		0
85		78		66		1		2		0
86		44		67		0		5		0
87		85		67		1		2		0
88		45		68		0		5		0
89		94		68		1		2		0
90		46		69		1		5		0
91		96		69		0		2		0
92		47		70		0		5		0
93		91		70		1		2		0
94		48		71		1		5		0
95		78		71		0		2		0
96		49		72		1		5		0
97		91		72		0		2		0
98		50		73		0		5		0
99		89		73		1		2		0
100		51		74		1		5		0
101		86		74		0		2		0
102		52		75		0		5		0
103		80		75		1		2		0
104		53		76		1		5		0
105		90		76		0		2		0
106		54		77		0		5		0
107		94		77		1		2		0
108		55		78		1		5		0
109		90		78		0		2		0
110		56		79		0		5		0
111		93		79		1		2		0
112		57		80		1		5		0
113		88		80		0		2		0
114		58		81		0		5		0
115		79		81		1		2		0
116		59		82		0		5		0
117		89		82		1		2		0
118		60		83		1		5		0
119		85		83		0		2		0
120		61		84		1		5		0
121		84		84		0		2		0
122		62		85		0		5		0
123		81		85		1		2		0
124		63		86		1		5		0
125		77		86		0		2		0
126		64		87		0		5		0
127		92		87		1		2		0
128		65		88		0		5		0
129		95		88		1		2		0
130		66		89		1		5		0
131		84		89		0		2		0
132		67		90		1		5		0
133		82		90		0		2		0
134		68		91		1		5		0
135		94		91		0		2		0
136		69		92		1		5		0
137		90		92		0		2		0
138		70		93		1		5		0
139		88		93		0		2		0
140		71		94		0		5		0
141		80		94		1		2		0
142		72		95		0		5		0
143		77		95		1		2		0
144		73		96		0		5		0
145		77		96		1		2		0
146		74		97		1		5		0
147		94		97		0		2		0
148		75		98		0		5		0
149		94		98		1		2		0
150		76		99		1		5		0
151		93		99		0		2		0
